c Sudoku solution
p cnf 729 0
117 0
239 0
253 0
314 0
338 0
361 0
397 0
488 0
546 0
552 0
567 0
247 0
595 0
654 0
665 0
648 0
699 0
715 0
733 0
764 0
144 0
832 0
876 0
957 0
979 0
998 0
681 0
496 0
435 0
637 0
477 0
672 0
424 0
531 0
412 0
934 0
136 0
211 0
191 0
916 0
921 0
756 0
728 0
827 0
819 0
749 0
613 0
626 0
518 0
529 0
266 0
386 0
189 0
359 0
278 0
451 0
443 0
469 0
841 0
771 0
792 0
787 0
574 0
583 0
282 0
294 0
225 0
985 0
893 0
884 0
868 0
963 0
942 0
855 0
345 0
162 0
158 0
123 0
322 0
175 0
373 0
